r = [
0,181,132,79,59,152,10,76,57,132,27,175,83,172,177,173,10,129,159,16,52,76,26,154,19,187,0
];
p = [
0,7,24,4,28,14,29,2,8,13,3,19,17,13,6,29,18,18,29,25,27,8,21,16,1,16,0
];
e = [
0,18,14,20,19,3,11,8,9,16,4,2,11,12,20,18,9,12,11,11,5,19,19,5,16,11,0
];
d = [
0,380,319,267,243,331,197,279,259,340,213,357,300,363,355,388,225,339,339,209,263,283,213,363,205,399,401
];
d_bar = [
0,381,321,268,246,332,200,280,260,341,214,359,302,364,356,391,227,341,342,212,266,284,215,365,206,401,401
];
w = [
0,18,7,20,6.333333333,3,3.666666667,8,9,16,4,1,5.5,12,20,6,4.5,6,3.666666667,3.666666667,1.666666667,19,9.5,2.5,16,5.5,0
];
